
  22    4
  10   10   10   10

   0   0   0   0   0   5 2 3 4 8 11 
   1  10  10  10  10   7 20 18 17 16 10 7 6 
   4  10  10  10  10   5 20 17 16 9 7 
   9  10  10  10  10   3 17 13 5 
   2  10  10  10  10   5 18 16 15 14 10 
   3  10  10  10  10   4 21 15 14 9 
   7  10  10  10  10   5 19 15 14 13 12 
   3  10  10  10  10   2 16 10 
   9  10  10  10  10   2 13 12 
   6  10  10  10  10   1 12 
   7  10  10  10  10   1 13 
   5  10  10  10  10   1 22
   5  10  10  10  10   1 22
   3  10  10  10  10   1 22
   2  10  10  10  10   1 22
   8  10  10  10  10   1 22
   4  10  10  10  10   1 22
   2  10  10  10  10   1 22
   6  10  10  10  10   1 22
   4  10  10  10  10   1 22
   7  10  10  10  10   1 22
   0   0   0   0   0   0 
